Gurobi 高端操作/work_assignment.mps
NAME Work_Assignment
ROWS
 N  TotalSlack       2  1  1e-06  0
 N  Fairness       1  1  1e-06  0
 E  c0      
 E  c1      
 E  c2      
 E  c3      
 E  c4      
 E  c5      
 E  c6      
 E  c7      
 E  c8      
 E  c9      
 E  c10     
 E  c11     
 E  c12     
 E  c13     
 E  c14     
 E  c15     
 E  c16     
COLUMNS
    MARKER    'MARKER'                 'INTORG'
    B0(2)     c0        1
    B0(2)     c11       -1
    B1(2)     c1        1
    B1(2)     c11       -1
    B2(2)     c2        1
    B2(2)     c11       -1
    B3(2)     c3        1
    B3(2)     c11       -1
    B4(2)     c4        1
    B4(2)     c11       -1
    B5(2)     c5        1
    B5(2)     c11       -1
    B6(2)     c6        1
    B6(2)     c11       -1
    B7(2)     c7        1
    B7(2)     c11       -1
    B8(2)     c8        1
    B8(2)     c11       -1
    B9(2)     c9        1
    B9(2)     c11       -1
    B10(2)    c0        1
    B10(2)    c12       -1
    B11(2)    c1        1
    B11(2)    c12       -1
    B12(2)    c2        1
    B12(2)    c12       -1
    B13(2)    c3        1
    B13(2)    c12       -1
    B14(2)    c4        1
    B14(2)    c12       -1
    B15(2)    c5        1
    B15(2)    c12       -1
    B16(2)    c6        1
    B16(2)    c12       -1
    B17(2)    c7        1
    B17(2)    c12       -1
    B18(2)    c8        1
    B18(2)    c12       -1
    B19(2)    c9        1
    B19(2)    c12       -1
    B20(2)    c0        1
    B20(2)    c13       -1
    B21(2)    c1        1
    B21(2)    c13       -1
    B22(2)    c2        1
    B22(2)    c13       -1
    B23(2)    c3        1
    B23(2)    c13       -1
    B24(2)    c4        1
    B24(2)    c13       -1
    B25(2)    c5        1
    B25(2)    c13       -1
    B26(2)    c6        1
    B26(2)    c13       -1
    B27(2)    c7        1
    B27(2)    c13       -1
    B28(2)    c8        1
    B28(2)    c13       -1
    B29(2)    c9        1
    B29(2)    c13       -1
    B30(2)    c0        1
    B30(2)    c14       -1
    B31(2)    c1        1
    B31(2)    c14       -1
    B32(2)    c2        1
    B32(2)    c14       -1
    B33(2)    c3        1
    B33(2)    c14       -1
    B34(2)    c4        1
    B34(2)    c14       -1
    B35(2)    c5        1
    B35(2)    c14       -1
    B36(2)    c6        1
    B36(2)    c14       -1
    B37(2)    c7        1
    B37(2)    c14       -1
    B38(2)    c8        1
    B38(2)    c14       -1
    B39(2)    c9        1
    B39(2)    c14       -1
    B40(2)    c0        1
    B40(2)    c15       -1
    B41(2)    c1        1
    B41(2)    c15       -1
    B42(2)    c2        1
    B42(2)    c15       -1
    B43(2)    c3        1
    B43(2)    c15       -1
    B44(2)    c4        1
    B44(2)    c15       -1
    B45(2)    c5        1
    B45(2)    c15       -1
    B46(2)    c6        1
    B46(2)    c15       -1
    B47(2)    c7        1
    B47(2)    c15       -1
    B48(2)    c8        1
    B48(2)    c15       -1
    B49(2)    c9        1
    B49(2)    c15       -1
    B50(2)    c0        1
    B50(2)    c16       -1
    B51(2)    c1        1
    B51(2)    c16       -1
    B52(2)    c2        1
    B52(2)    c16       -1
    B53(2)    c3        1
    B53(2)    c16       -1
    B54(2)    c4        1
    B54(2)    c16       -1
    B55(2)    c5        1
    B55(2)    c16       -1
    B56(2)    c6        1
    B56(2)    c16       -1
    B57(2)    c7        1
    B57(2)    c16       -1
    B58(2)    c8        1
    B58(2)    c16       -1
    B59(2)    c9        1
    B59(2)    c16       -1
    MARKER    'MARKER'                 'INTEND'
    C60(2)    c0        1
    C60(2)    c10       -1
    C61(2)    c1        1
    C61(2)    c10       -1
    C62(2)    c2        1
    C62(2)    c10       -1
    C63(2)    c3        1
    C63(2)    c10       -1
    C64(2)    c4        1
    C64(2)    c10       -1
    C65(2)    c5        1
    C65(2)    c10       -1
    C66(2)    c6        1
    C66(2)    c10       -1
    C67(2)    c7        1
    C67(2)    c10       -1
    C68(2)    c8        1
    C68(2)    c10       -1
    C69(2)    c9        1
    C69(2)    c10       -1
    C70(1)    TotalSlack  1
    C70(1)    c10       1
    C71(1)    c11       1
    C72(1)    c12       1
    C73(1)    c13       1
    C74(1)    c14       1
    C75(1)    c15       1
    C76(1)    c16       1
    C77(0)    Fairness  -1
    C78(0)    Fairness  1
RHS
    RHS1      TotalSlack  -1000
    RHS1      c0        2
    RHS1      c1        3
    RHS1      c2        4
    RHS1      c3        5
    RHS1      c4        4
    RHS1      c5        3
    RHS1      c6        5
    RHS1      c7        2
    RHS1      c8        5
    RHS1      c9        3
BOUNDS
 BV BND1      B0(2)   
 BV BND1      B1(2)   
 FX BND1      B2(2)     0
 BV BND1      B2(2)   
 BV BND1      B3(2)   
 BV BND1      B4(2)   
 FX BND1      B5(2)     0
 BV BND1      B5(2)   
 BV BND1      B6(2)   
 BV BND1      B7(2)   
 FX BND1      B8(2)     0
 BV BND1      B8(2)   
 BV BND1      B9(2)   
 FX BND1      B10(2)    0
 BV BND1      B10(2)  
 FX BND1      B11(2)    0
 BV BND1      B11(2)  
 BV BND1      B12(2)  
 BV BND1      B13(2)  
 BV BND1      B14(2)  
 FX BND1      B15(2)    0
 BV BND1      B15(2)  
 BV BND1      B16(2)  
 BV BND1      B17(2)  
 BV BND1      B18(2)  
 BV BND1      B19(2)  
 FX BND1      B20(2)    0
 BV BND1      B20(2)  
 BV BND1      B21(2)  
 BV BND1      B22(2)  
 FX BND1      B23(2)    0
 BV BND1      B23(2)  
 BV BND1      B24(2)  
 BV BND1      B25(2)  
 FX BND1      B26(2)    0
 BV BND1      B26(2)  
 BV BND1      B27(2)  
 BV BND1      B28(2)  
 BV BND1      B29(2)  
 BV BND1      B30(2)  
 FX BND1      B31(2)    0
 BV BND1      B31(2)  
 BV BND1      B32(2)  
 BV BND1      B33(2)  
 BV BND1      B34(2)  
 FX BND1      B35(2)    0
 BV BND1      B35(2)  
 BV BND1      B36(2)  
 BV BND1      B37(2)  
 BV BND1      B38(2)  
 FX BND1      B39(2)    0
 BV BND1      B39(2)  
 BV BND1      B40(2)  
 BV BND1      B41(2)  
 BV BND1      B42(2)  
 FX BND1      B43(2)    0
 BV BND1      B43(2)  
 FX BND1      B44(2)    0
 BV BND1      B44(2)  
 BV BND1      B45(2)  
 FX BND1      B46(2)    0
 BV BND1      B46(2)  
 BV BND1      B47(2)  
 BV BND1      B48(2)  
 FX BND1      B49(2)    0
 BV BND1      B49(2)  
 FX BND1      B50(2)    0
 BV BND1      B50(2)  
 BV BND1      B51(2)  
 BV BND1      B52(2)  
 BV BND1      B53(2)  
 FX BND1      B54(2)    0
 BV BND1      B54(2)  
 BV BND1      B55(2)  
 BV BND1      B56(2)  
 FX BND1      B57(2)    0
 BV BND1      B57(2)  
 BV BND1      B58(2)  
 BV BND1      B59(2)  
GENCONS
 MIN minShift
    C77(0)
    C71(1)
    C72(1)
    C73(1)
    C74(1)
    C75(1)
    C76(1)
 MAX maxShift
    C78(0)
    C71(1)
    C72(1)
    C73(1)
    C74(1)
    C75(1)
    C76(1)
ENDATA
